10J3M/DAT/10J3MUTX-5.dat
10 3
0.9391 0.9691
26.3986 5.138
18.311 4.2791
29.021 5.3871
9.6552 3.1073
37.1597 6.0959
1.6521 1.2853
44.7283 6.6879
23.9482 4.8937
27.7469 5.2675
10.7777