10J3M/SOL/10J3MUTX-5.sol
solution status: optimal solution found
objective value:                     63.2824803204131
x#1#1                               0.620088881866836 	(obj:0)
x#1#3                               0.379911118133164 	(obj:0)
x#3#2                                               1 	(obj:0)
x#5#2                               0.244423317471851 	(obj:0)
x#5#3                               0.637016665372732 	(obj:0)
x#6#1                                               1 	(obj:0)
x#9#2                               0.694056132561787 	(obj:0)
x#9#3                               0.305943867438213 	(obj:0)
x#10#1                              0.305843540731456 	(obj:0)
x#10#3                              0.694156459268544 	(obj:0)
z                                    63.2824803204131 	(obj:1)
